r = 8; % rows
c = 8; % column
nmines = 10;
game = [|X,1,X,1,X,X,1,X,
        |X,1,1,1,1,1,3,2,
        |X,X,X,X,1,X,2,X,
        |1,1,1,X,1,1,2,1,
        |2,X,3,2,1,1,1,1,
        |X,3,X,X,1,1,X,1,
        |1,3,3,3,1,1,1,1,
        |X,1,X,1,X,X,X,X|];

% 0 0 1 0 0 0 0 1
% 0 0 0 0 0 0 0 0
% 0 0 0 0 0 1 0 1
% 0 0 0 0 0 0 0 0
% 0 1 0 0 0 0 0 0
% 1 0 1 1 0 0 1 0
% 0 0 0 0 0 0 0 0
% 0 0 1 0 0 0 0 0